db/data/234652916828650739224834937277619217.z3.out
sat
-------------------
21.251548457
